Route #1: 0 39 46 6 26 9 34 47 0
Route #2: 0 4 37 50 35 36 14 27 15 0
Route #3: 0 31 43 5 55 21 18 0
Route #4: 0 25 56 8 52 24 19 12 0
Route #5: 0 7 63 54 48 23 33 13 0
Route #6: 0 17 49 29 1 57 11 28 62 0
Route #7: 0 3 2 41 60 30 0
Route #8: 0 16 38 42 61 20 58 40 59 0
Route #9: 0 53 10 44 32 45 22 64 51 0
Cost 1577:
